NAME : eil22
COMMENT : (Eilon et al.)
TYPE : CVRP
DIMENSION : 22
EDGE_WEIGHT_TYPE : EUC_2D
CAPACITY : 6000
NODE_COORD_SECTION
1 145 215 D
2 151 264 L
3 159 261 L
4 130 254 L
5 128 252 L
6 163 247 L
7 146 246 L
8 161 242 L
9 142 239 L
10 163 236 L
11 148 232 L
12 128 231 B
13 156 217 L
14 129 214 L
15 146 208 L
16 164 208 L
17 141 206 B
18 147 193 L
19 164 193 B
20 129 189 L
21 155 185 B
22 139 182 L
DEMAND_SECTION
1 0
2 1100
3 700
4 800
5 1400
6 2100
7 400
8 800
9 100
10 500
11 600
12 1200
13 1300
14 1300
15 300
16 900
17 2100
18 1000
19 900
20 2500
21 1800
22 700
DEPOT_SECTION
 1
 -1
EOF
